20
2 0 2
3 0 1
3 1 1
4 0 3
4 2 5
5 0 4
5 1 2
5 2 4
6 0 3
6 2 1
6 3 4
7 1 4
7 3 5
8 0 2
8 3 2
8 7 4
9 1 5
9 3 2
9 4 4
9 5 2
9 7 1
10 2 5
10 4 1
10 5 3
10 6 2
10 7 5
10 8 1
11 1 1
11 2 4
11 3 4
11 4 4
11 6 5
11 7 4
12 3 5
12 5 2
12 6 4
12 7 1
12 8 2
12 9 4
12 11 2
13 3 1
13 4 1
13 5 3
13 8 5
13 12 2
14 0 1
14 7 3
14 12 4
15 1 1
15 3 3
15 4 2
15 6 2
15 7 4
15 8 1
15 9 4
15 10 2
15 14 3
16 0 1
16 2 3
16 3 3
16 9 4
16 10 3
16 14 4
17 1 4
17 2 2
17 4 3
17 5 1
17 7 1
17 9 4
17 10 1
17 14 1
17 15 2
18 3 1
18 4 3
18 6 3
18 9 5
18 11 3
18 14 5
18 17 3
19 0 2
19 1 3
19 2 3
19 3 4
19 5 5
19 6 2
19 9 3
19 10 2
19 13 5
19 14 3
19 15 4
19 18 3
